rust/resources/scientific_notation_2.lp
\\ Testing scientific notation and special values
Minimize
 obj: 1.5e-2 x1 + 3.2E+3 x2
Subject To
 c1: 2.1e-1 x1 + 1.0e+1 x2 <= 1000
 c2: x1 + x2 >= 0
Bounds
 -infinity <= x1 <= +infinity
 0 <= x2 <= +inf
End